150 9062880
24 148 4 136 104 140 134 30 72 147 29 44 102 144 125 26 3 43 130 6 48 61 143 55 68 150 91 128 142 98 81 7 121 137 99 146 117 118 145 89 101 139 131 84 18 124 83 78 11 8 1 71 129 67 58 66 22 49 9 127 15 34 32 114 16 122 77 10 19 69 35 103 14 50 135 92 87 59 123 109 62 93 90 94 28 54 138 76 75 20 5 60 133 112 113 36 95 13 82 108 111 97 46 120 52 47 110 79 73 96 86 65 63 27 80 74 39 70 12 42 25 105 37 115 116 31 119 56 2 41 33 53 38 85 23 64 45 132 21 149 107 51 100 141 106 40 57 88 126 17 
